50
400 400
1 319 391
2 318 67
3 317 670
4 309 950
5 308 684
6 288 143
7 288 995
8 287 679
9 285 812
10 278 216
11 263 283
12 262 43
13 259 351
14 250 963
15 250 401
16 247 507
17 235 564
18 235 753
19 231 39
20 230 415
21 225 507
22 223 260
23 223 977
24 214 685
25 210 982
26 207 90
27 204 152
28 203 502
29 200 733
30 193 89
31 192 494
32 176 24
33 169 876
34 166 978
35 146 868
36 142 779
37 121 908
38 118 750
39 115 482
40 108 293
41 94 11
42 93 541
43 86 743
44 69 720
45 59 714
46 55 885
47 43 252
48 43 965
49 43 920
50 42 185
